15
1 0 10
3 0 2
3 1 10
4 1 9
4 3 8
5 0 10
5 1 2
5 4 9
6 0 5
6 4 6
6 5 9
7 1 2
7 3 8
8 0 4
8 1 2
8 2 8
8 5 3
8 7 1
9 0 1
9 2 9
9 3 10
9 4 3
9 5 10
9 6 6
9 7 3
9 8 9
10 0 1
10 1 2
10 2 4
10 3 7
10 5 4
10 6 1
11 1 6
11 2 10
11 5 7
11 7 1
11 8 6
11 10 9
12 0 5
12 1 10
12 2 4
12 5 1
12 6 2
12 7 3
12 8 5
12 10 5
13 0 10
13 2 6
13 3 9
13 5 3
13 6 7
13 7 1
13 8 6
13 9 3
13 10 8
13 11 10
14 1 2
14 5 7
14 7 3
14 9 7
14 10 5
14 11 6
14 12 1
14 13 2
